NAME : B-n68-k9
COMMENT : (Augerat et al, Min no of trucks: 9, Best value: 1304)
TYPE : CVRP
DIMENSION : 68
EDGE_WEIGHT_TYPE : EUC_2D 
CAPACITY : 100
NODE_COORD_SECTION 
1 87 39
2 63 45
3 5 71
4 71 13
5 59 63
6 45 95
7 29 13
8 51 79
9 7 67
10 25 85
11 1 7
12 72 14
13 28 86
14 52 86
15 46 100
16 66 46
17 28 90
18 16 70
19 2 14
20 79 21
21 14 72
22 32 88
23 6 72
24 73 15
25 2 12
26 73 21
27 12 76
28 66 72
29 2 16
30 38 16
31 30 88
DEMAND_SECTION 
1 0 
2 10 
3 3 
4 7 
5 18 
6 2 
7 2 
8 23 
9 8 
10 9 
11 22 
12 12 
13 20 
14 21 
15 9 
16 6 
17 11 
18 18 
19 23 
20 10 
21 11 
22 3 
23 10 
24 23 
25 8 
26 16 
27 26 
28 19 
29 9 
30 18 
31 5 
DEPOT_SECTION 
1  
-1  
EOF 
